\ENCODING=ISO-8859-1
\Problem name: bSARP

Maximize
 obj1: 13.2264 x(0,5,0) + 6.9612 x(0,6,0) + 2.9224 x(0,7,0) + 0.65 x(0,8,0)
       + 10.4756 x(0,9,0) + 13.2264 x(0,15,0) + 6.9612 x(0,16,0)
       + 2.9224 x(0,17,0) + 0.65 x(0,18,0) + 10.4756 x(0,19,0)
       + 13.2264 x(0,20,0) + 6.9612 x(0,21,0) + 2.9224 x(0,22,0)
       + 0.65 x(0,23,0) + 10.4756 x(0,24,0) + 13.2264 x(0,31,0)
       + 12.9314 x(1,5,0) + 12.039 x(1,7,0) + 10.291 x(1,8,0)
       + 11.6802 x(1,9,0) + 14.7438 x(1,15,0) + 12.039 x(1,17,0)
       + 10.291 x(1,18,0) + 11.6802 x(1,19,0) + 10.981 x(1,20,0)
       + 12.039 x(1,22,0) + 10.291 x(1,23,0) + 11.6802 x(1,24,0)
       + 18.2858 x(1,31,0) + 6.292 x(2,5,0) + 6.292 x(2,6,0) + 1.9588 x(2,8,0)
       - 5.6588 x(2,9,0) - 1.666 x(2,15,0) + 6.292 x(2,16,0) + 1.9588 x(2,18,0)
       - 5.6588 x(2,19,0) - 6.8364 x(2,20,0) + 6.292 x(2,21,0)
       + 1.9588 x(2,23,0) - 5.6588 x(2,24,0) + 6.292 x(2,31,0)
       - 13.4792 x(3,5,0) - 13.3872 x(3,6,0) - 0.396799999999999 x(3,7,0)
       - 14.4544 x(3,9,0) - 10.2592 x(3,15,0) - 13.3872 x(3,16,0)
       - 0.396799999999999 x(3,17,0) - 14.4544 x(3,19,0) - 15.4296 x(3,20,0)
       - 13.3872 x(3,21,0) - 0.396799999999999 x(3,22,0) - 14.4544 x(3,24,0)
       - 0.396799999999999 x(3,31,0) + 10.4322 x(4,5,0) + 6.6786 x(4,6,0)
       - 1.6014 x(4,7,0) + 10.4322 x(4,8,0) + 10.4322 x(4,15,0)
       + 6.6786 x(4,16,0) - 1.6014 x(4,17,0) + 10.4322 x(4,18,0)
       + 10.4322 x(4,20,0) + 6.6786 x(4,21,0) - 1.6014 x(4,22,0)
       + 10.4322 x(4,23,0) + 10.4322 x(4,31,0) + 7.287 x(5,31,0)
       + 15.8976 x(6,31,0) + 0.490599999999997 x(7,31,0) - 9.1514 x(8,31,0)
       + 9.6264 x(9,31,0) + 6.1926 x(10,0,0) - 4.415 x(10,1,0)
       + 6.1926 x(10,2,0) - 4.8014 x(10,3,0) - 1.4802 x(10,4,0)
       + 6.1926 x(10,5,0) - 4.415 x(10,6,0) + 6.1926 x(10,7,0)
       - 4.8014 x(10,8,0) - 1.4802 x(10,9,0) + 6.1926 x(10,15,0)
       - 4.415 x(10,16,0) + 6.1926 x(10,17,0) - 4.8014 x(10,18,0)
       - 1.4802 x(10,19,0) + 6.1926 x(10,20,0) - 4.415 x(10,21,0)
       + 6.1926 x(10,22,0) - 4.8014 x(10,23,0) - 1.4802 x(10,24,0)
       + 6.1926 x(10,31,0) + 5.1524 x(11,0,0) + 2.4476 x(11,2,0)
       + 0.699599999999998 x(11,3,0) + 2.0888 x(11,4,0) + 3.34 x(11,5,0)
       + 2.4476 x(11,7,0) + 0.699599999999998 x(11,8,0) + 2.0888 x(11,9,0)
       + 5.1524 x(11,15,0) + 2.4476 x(11,17,0) + 0.699599999999998 x(11,18,0)
       + 2.0888 x(11,19,0) + 1.3896 x(11,20,0) + 2.4476 x(11,22,0)
       + 0.699599999999998 x(11,23,0) + 2.0888 x(11,24,0) + 8.6944 x(11,31,0)
       - 5.4614 x(12,0,0) + 2.4966 x(12,1,0) - 1.8366 x(12,3,0)
       - 9.4542 x(12,4,0) + 2.4966 x(12,5,0) + 2.4966 x(12,6,0)
       - 1.8366 x(12,8,0) - 9.4542 x(12,9,0) - 5.4614 x(12,15,0)
       + 2.4966 x(12,16,0) - 1.8366 x(12,18,0) - 9.4542 x(12,19,0)
       - 10.6318 x(12,20,0) + 2.4966 x(12,21,0) - 1.8366 x(12,23,0)
       - 9.4542 x(12,24,0) + 2.4966 x(12,31,0) - 19.9794 x(13,0,0)
       - 10.117 x(13,2,0) - 23.1994 x(13,5,0) - 23.1074 x(13,6,0)
       - 10.117 x(13,7,0) - 24.1746 x(13,9,0) - 19.9794 x(13,15,0)
       - 23.1074 x(13,16,0) - 10.117 x(13,17,0) - 24.1746 x(13,19,0)
       - 25.1498 x(13,20,0) - 23.1074 x(13,21,0) - 10.117 x(13,22,0)
       - 24.1746 x(13,24,0) - 10.117 x(13,31,0) - 10.5028 x(14,0,0)
       - 6.6388 x(14,1,0) - 14.9188 x(14,2,0) - 2.8852 x(14,3,0)
       - 2.8852 x(14,5,0) - 6.6388 x(14,6,0) - 14.9188 x(14,7,0)
       - 2.8852 x(14,8,0) - 2.8852 x(14,15,0) - 6.6388 x(14,16,0)
       - 14.9188 x(14,17,0) - 2.8852 x(14,18,0) - 2.8852 x(14,20,0)
       - 6.6388 x(14,21,0) - 14.9188 x(14,22,0) - 2.8852 x(14,23,0)
       - 2.8852 x(14,31,0) + 6.8538 x(15,5,0) + 2.7506 x(15,6,0)
       - 3.027 x(15,7,0) + 6.8538 x(15,8,0) + 2.1526 x(15,9,0)
       + 6.8538 x(15,31,0) + 7.8928 x(16,5,0) + 7.0004 x(16,7,0)
       + 5.2524 x(16,8,0) + 6.6416 x(16,9,0) + 13.2472 x(16,31,0)
       + 1.7226 x(17,5,0) + 1.7226 x(17,6,0) - 2.6106 x(17,8,0)
       - 10.2282 x(17,9,0) + 1.7226 x(17,31,0) - 16.963 x(18,5,0)
       - 16.871 x(18,6,0) - 3.8806 x(18,7,0) - 17.9382 x(18,9,0)
       - 3.8806 x(18,31,0) + 2.2472 x(19,5,0) - 1.5064 x(19,6,0)
       - 9.7864 x(19,7,0) + 2.2472 x(19,8,0) + 2.2472 x(19,31,0)
       + 10.2282 x(20,5,0) + 4.4966 x(20,6,0) - 0.186199999999999 x(20,7,0)
       - 2.4586 x(20,8,0) + 10.2282 x(20,9,0) + 10.2282 x(20,15,0)
       + 10.2282 x(20,19,0) + 10.2282 x(20,31,0) + 13.3464 x(21,5,0)
       + 12.454 x(21,7,0) + 10.706 x(21,8,0) + 12.0952 x(21,9,0)
       + 15.1588 x(21,15,0) + 18.7008 x(21,31,0) - 0.174600000000002 x(22,5,0)
       - 0.174600000000002 x(22,6,0) - 4.5078 x(22,8,0) - 12.1254 x(22,9,0)
       - 0.174600000000002 x(22,31,0) - 22.899 x(23,5,0) - 22.807 x(23,6,0)
       - 9.8166 x(23,7,0) - 23.8742 x(23,9,0) - 9.8166 x(23,31,0)
       + 11.1784 x(24,5,0) + 7.4248 x(24,6,0) - 0.8552 x(24,7,0)
       + 11.1784 x(24,8,0) + 11.1784 x(24,15,0) + 11.1784 x(24,31,0)
       + 11.391 x(25,0,0) + 11.391 x(25,1,0) + 11.391 x(25,2,0)
       + 11.391 x(25,3,0) + 11.391 x(25,4,0) + 11.391 x(25,5,0)
       + 11.391 x(25,6,0) + 11.391 x(25,7,0) + 11.391 x(25,8,0)
       + 11.391 x(25,9,0) + 11.391 x(25,10,0) + 11.391 x(25,11,0)
       + 11.391 x(25,12,0) + 11.391 x(25,13,0) + 11.391 x(25,14,0)
       + 11.391 x(25,15,0) + 11.391 x(25,16,0) + 11.391 x(25,17,0)
       + 11.391 x(25,18,0) + 11.391 x(25,19,0) + 11.391 x(25,20,0)
       + 11.391 x(25,21,0) + 11.391 x(25,22,0) + 11.391 x(25,23,0)
       + 11.391 x(25,24,0) + 11.391 x(25,31,0) + 6.3212 x(26,0,0)
       + 3.6164 x(26,2,0) + 1.8684 x(26,3,0) + 3.2576 x(26,4,0)
       + 4.5088 x(26,5,0) + 3.6164 x(26,7,0) + 1.8684 x(26,8,0)
       + 3.2576 x(26,9,0) + 3.782 x(26,10,0) + 3.6164 x(26,12,0)
       + 1.8684 x(26,13,0) + 3.2576 x(26,14,0) + 6.3212 x(26,15,0)
       + 3.6164 x(26,17,0) + 1.8684 x(26,18,0) + 3.2576 x(26,19,0)
       + 2.5584 x(26,20,0) + 3.6164 x(26,22,0) + 1.8684 x(26,23,0)
       + 3.2576 x(26,24,0) + 9.8632 x(26,31,0) + 2.1934 x(27,0,0)
       + 10.1514 x(27,1,0) + 5.8182 x(27,3,0) - 1.7994 x(27,4,0)
       + 10.1514 x(27,5,0) + 10.1514 x(27,6,0) + 5.8182 x(27,8,0)
       - 1.7994 x(27,9,0) - 0.557400000000001 x(27,10,0) + 10.1514 x(27,11,0)
       + 5.8182 x(27,13,0) - 1.7994 x(27,14,0) + 2.1934 x(27,15,0)
       + 10.1514 x(27,16,0) + 5.8182 x(27,18,0) - 1.7994 x(27,19,0)
       - 2.977 x(27,20,0) + 10.1514 x(27,21,0) + 5.8182 x(27,23,0)
       - 1.7994 x(27,24,0) + 10.1514 x(27,31,0) - 2.0666 x(28,0,0)
       - 5.1946 x(28,1,0) + 7.7958 x(28,2,0) - 6.2618 x(28,4,0)
       - 5.2866 x(28,5,0) - 5.1946 x(28,6,0) + 7.7958 x(28,7,0)
       - 6.2618 x(28,9,0) + 7.7958 x(28,10,0) - 5.1946 x(28,11,0)
       + 7.7958 x(28,12,0) - 6.2618 x(28,14,0) - 2.0666 x(28,15,0)
       - 5.1946 x(28,16,0) + 7.7958 x(28,17,0) - 6.2618 x(28,19,0)
       - 7.237 x(28,20,0) - 5.1946 x(28,21,0) + 7.7958 x(28,22,0)
       - 6.2618 x(28,24,0) + 7.7958 x(28,31,0) - 9.4904 x(29,0,0)
       - 5.6264 x(29,1,0) - 13.9064 x(29,2,0) - 1.8728 x(29,3,0)
       - 1.8728 x(29,5,0) - 5.6264 x(29,6,0) - 13.9064 x(29,7,0)
       - 1.8728 x(29,8,0) - 10.3184 x(29,10,0) - 5.6264 x(29,11,0)
       - 13.9064 x(29,12,0) - 1.8728 x(29,13,0) - 1.8728 x(29,15,0)
       - 5.6264 x(29,16,0) - 13.9064 x(29,17,0) - 1.8728 x(29,18,0)
       - 1.8728 x(29,20,0) - 5.6264 x(29,21,0) - 13.9064 x(29,22,0)
       - 1.8728 x(29,23,0) - 1.8728 x(29,31,0) - 11.96 x(30,0,0)
       - 8.648 x(30,1,0) - 13.8092 x(30,2,0) - 16.928 x(30,3,0) + 0 x(30,4,0)
       - 6.44 x(30,5,0) - 8.648 x(30,6,0) - 13.8092 x(30,7,0)
       - 16.928 x(30,8,0) + 0 x(30,9,0) - 7.9948 x(30,10,0) - 8.648 x(30,11,0)
       - 13.8092 x(30,12,0) - 16.928 x(30,13,0) + 0 x(30,14,0)
       - 11.96 x(30,15,0) - 8.648 x(30,16,0) - 13.8092 x(30,17,0)
       - 16.928 x(30,18,0) + 0 x(30,19,0) + 0 x(30,20,0) - 8.648 x(30,21,0)
       - 13.8092 x(30,22,0) - 16.928 x(30,23,0) + 0 x(30,24,0)
       - 15.1708 x(30,25,0) - 8.648 x(30,26,0) - 13.8092 x(30,27,0)
       - 16.928 x(30,28,0) + 0 x(30,29,0)
Subject To
 Constraint1_0: x(0,5,0) + x(0,6,0) + x(0,7,0) + x(0,8,0) + x(0,9,0)
                + x(0,15,0) + x(0,16,0) + x(0,17,0) + x(0,18,0) + x(0,19,0)
                + x(0,20,0) + x(0,21,0) + x(0,22,0) + x(0,23,0) + x(0,24,0)
                + x(0,31,0) + x(1,5,0) + x(1,7,0) + x(1,8,0) + x(1,9,0)
                + x(1,15,0) + x(1,17,0) + x(1,18,0) + x(1,19,0) + x(1,20,0)
                + x(1,22,0) + x(1,23,0) + x(1,24,0) + x(1,31,0) + x(2,5,0)
                + x(2,6,0) + x(2,8,0) + x(2,9,0) + x(2,15,0) + x(2,16,0)
                + x(2,18,0) + x(2,19,0) + x(2,20,0) + x(2,21,0) + x(2,23,0)
                + x(2,24,0) + x(2,31,0) + x(3,5,0) + x(3,6,0) + x(3,7,0)
                + x(3,9,0) + x(3,15,0) + x(3,16,0) + x(3,17,0) + x(3,19,0)
                + x(3,20,0) + x(3,21,0) + x(3,22,0) + x(3,24,0) + x(3,31,0)
                + x(4,5,0) + x(4,6,0) + x(4,7,0) + x(4,8,0) + x(4,15,0)
                + x(4,16,0) + x(4,17,0) + x(4,18,0) + x(4,20,0) + x(4,21,0)
                + x(4,22,0) + x(4,23,0) + x(4,31,0)  = 1
 Constraint1_1: x(5,31,0) + x(6,31,0) + x(7,31,0) + x(8,31,0) + x(9,31,0)  = 1
 Constraint1_2: x(10,0,0) + x(10,1,0) + x(10,2,0) + x(10,3,0) + x(10,4,0)
                + x(10,5,0) + x(10,6,0) + x(10,7,0) + x(10,8,0) + x(10,9,0)
                + x(10,15,0) + x(10,16,0) + x(10,17,0) + x(10,18,0)
                + x(10,19,0) + x(10,20,0) + x(10,21,0) + x(10,22,0)
                + x(10,23,0) + x(10,24,0) + x(10,31,0) + x(11,0,0) + x(11,2,0)
                + x(11,3,0) + x(11,4,0) + x(11,5,0) + x(11,7,0) + x(11,8,0)
                + x(11,9,0) + x(11,15,0) + x(11,17,0) + x(11,18,0) + x(11,19,0)
                + x(11,20,0) + x(11,22,0) + x(11,23,0) + x(11,24,0)
                + x(11,31,0) + x(12,0,0) + x(12,1,0) + x(12,3,0) + x(12,4,0)
                + x(12,5,0) + x(12,6,0) + x(12,8,0) + x(12,9,0) + x(12,15,0)
                + x(12,16,0) + x(12,18,0) + x(12,19,0) + x(12,20,0)
                + x(12,21,0) + x(12,23,0) + x(12,24,0) + x(12,31,0) + x(13,0,0)
                + x(13,2,0) + x(13,5,0) + x(13,6,0) + x(13,7,0) + x(13,9,0)
                + x(13,15,0) + x(13,16,0) + x(13,17,0) + x(13,19,0)
                + x(13,20,0) + x(13,21,0) + x(13,22,0) + x(13,24,0)
                + x(13,31,0) + x(14,0,0) + x(14,1,0) + x(14,2,0) + x(14,3,0)
                + x(14,5,0) + x(14,6,0) + x(14,7,0) + x(14,8,0) + x(14,15,0)
                + x(14,16,0) + x(14,17,0) + x(14,18,0) + x(14,20,0)
                + x(14,21,0) + x(14,22,0) + x(14,23,0) + x(14,31,0)  = 1
 Constraint1_3: x(15,5,0) + x(15,6,0) + x(15,7,0) + x(15,8,0) + x(15,9,0)
                + x(15,31,0) + x(16,5,0) + x(16,7,0) + x(16,8,0) + x(16,9,0)
                + x(16,31,0) + x(17,5,0) + x(17,6,0) + x(17,8,0) + x(17,9,0)
                + x(17,31,0) + x(18,5,0) + x(18,6,0) + x(18,7,0) + x(18,9,0)
                + x(18,31,0) + x(19,5,0) + x(19,6,0) + x(19,7,0) + x(19,8,0)
                + x(19,31,0)  = 1
 Constraint1_4: x(20,5,0) + x(20,6,0) + x(20,7,0) + x(20,8,0) + x(20,9,0)
                + x(20,15,0) + x(20,19,0) + x(20,31,0) + x(21,5,0) + x(21,7,0)
                + x(21,8,0) + x(21,9,0) + x(21,15,0) + x(21,31,0) + x(22,5,0)
                + x(22,6,0) + x(22,8,0) + x(22,9,0) + x(22,31,0) + x(23,5,0)
                + x(23,6,0) + x(23,7,0) + x(23,9,0) + x(23,31,0) + x(24,5,0)
                + x(24,6,0) + x(24,7,0) + x(24,8,0) + x(24,15,0) + x(24,31,0)
                 = 1
 Constraint1_5: x(25,0,0) + x(25,1,0) + x(25,2,0) + x(25,3,0) + x(25,4,0)
                + x(25,5,0) + x(25,6,0) + x(25,7,0) + x(25,8,0) + x(25,9,0)
                + x(25,10,0) + x(25,11,0) + x(25,12,0) + x(25,13,0)
                + x(25,14,0) + x(25,15,0) + x(25,16,0) + x(25,17,0)
                + x(25,18,0) + x(25,19,0) + x(25,20,0) + x(25,21,0)
                + x(25,22,0) + x(25,23,0) + x(25,24,0) + x(25,31,0) + x(26,0,0)
                + x(26,2,0) + x(26,3,0) + x(26,4,0) + x(26,5,0) + x(26,7,0)
                + x(26,8,0) + x(26,9,0) + x(26,10,0) + x(26,12,0) + x(26,13,0)
                + x(26,14,0) + x(26,15,0) + x(26,17,0) + x(26,18,0)
                + x(26,19,0) + x(26,20,0) + x(26,22,0) + x(26,23,0)
                + x(26,24,0) + x(26,31,0) + x(27,0,0) + x(27,1,0) + x(27,3,0)
                + x(27,4,0) + x(27,5,0) + x(27,6,0) + x(27,8,0) + x(27,9,0)
                + x(27,10,0) + x(27,11,0) + x(27,13,0) + x(27,14,0)
                + x(27,15,0) + x(27,16,0) + x(27,18,0) + x(27,19,0)
                + x(27,20,0) + x(27,21,0) + x(27,23,0) + x(27,24,0)
                + x(27,31,0) + x(28,0,0) + x(28,1,0) + x(28,2,0) + x(28,4,0)
                + x(28,5,0) + x(28,6,0) + x(28,7,0) + x(28,9,0) + x(28,10,0)
                + x(28,11,0) + x(28,12,0) + x(28,14,0) + x(28,15,0)
                + x(28,16,0) + x(28,17,0) + x(28,19,0) + x(28,20,0)
                + x(28,21,0) + x(28,22,0) + x(28,24,0) + x(28,31,0) + x(29,0,0)
                + x(29,1,0) + x(29,2,0) + x(29,3,0) + x(29,5,0) + x(29,6,0)
                + x(29,7,0) + x(29,8,0) + x(29,10,0) + x(29,11,0) + x(29,12,0)
                + x(29,13,0) + x(29,15,0) + x(29,16,0) + x(29,17,0)
                + x(29,18,0) + x(29,20,0) + x(29,21,0) + x(29,22,0)
                + x(29,23,0) + x(29,31,0)  = 1
Bounds
 0 <= x(0,5,0) <= 1
 0 <= x(0,6,0) <= 1
 0 <= x(0,7,0) <= 1
 0 <= x(0,8,0) <= 1
 0 <= x(0,9,0) <= 1
 0 <= x(0,15,0) <= 1
 0 <= x(0,16,0) <= 1
 0 <= x(0,17,0) <= 1
 0 <= x(0,18,0) <= 1
 0 <= x(0,19,0) <= 1
 0 <= x(0,20,0) <= 1
 0 <= x(0,21,0) <= 1
 0 <= x(0,22,0) <= 1
 0 <= x(0,23,0) <= 1
 0 <= x(0,24,0) <= 1
 0 <= x(0,31,0) <= 1
 0 <= x(1,5,0) <= 1
 0 <= x(1,7,0) <= 1
 0 <= x(1,8,0) <= 1
 0 <= x(1,9,0) <= 1
 0 <= x(1,15,0) <= 1
 0 <= x(1,17,0) <= 1
 0 <= x(1,18,0) <= 1
 0 <= x(1,19,0) <= 1
 0 <= x(1,20,0) <= 1
 0 <= x(1,22,0) <= 1
 0 <= x(1,23,0) <= 1
 0 <= x(1,24,0) <= 1
 0 <= x(1,31,0) <= 1
 0 <= x(2,5,0) <= 1
 0 <= x(2,6,0) <= 1
 0 <= x(2,8,0) <= 1
 0 <= x(2,9,0) <= 1
 0 <= x(2,15,0) <= 1
 0 <= x(2,16,0) <= 1
 0 <= x(2,18,0) <= 1
 0 <= x(2,19,0) <= 1
 0 <= x(2,20,0) <= 1
 0 <= x(2,21,0) <= 1
 0 <= x(2,23,0) <= 1
 0 <= x(2,24,0) <= 1
 0 <= x(2,31,0) <= 1
 0 <= x(3,5,0) <= 1
 0 <= x(3,6,0) <= 1
 0 <= x(3,7,0) <= 1
 0 <= x(3,9,0) <= 1
 0 <= x(3,15,0) <= 1
 0 <= x(3,16,0) <= 1
 0 <= x(3,17,0) <= 1
 0 <= x(3,19,0) <= 1
 0 <= x(3,20,0) <= 1
 0 <= x(3,21,0) <= 1
 0 <= x(3,22,0) <= 1
 0 <= x(3,24,0) <= 1
 0 <= x(3,31,0) <= 1
 0 <= x(4,5,0) <= 1
 0 <= x(4,6,0) <= 1
 0 <= x(4,7,0) <= 1
 0 <= x(4,8,0) <= 1
 0 <= x(4,15,0) <= 1
 0 <= x(4,16,0) <= 1
 0 <= x(4,17,0) <= 1
 0 <= x(4,18,0) <= 1
 0 <= x(4,20,0) <= 1
 0 <= x(4,21,0) <= 1
 0 <= x(4,22,0) <= 1
 0 <= x(4,23,0) <= 1
 0 <= x(4,31,0) <= 1
 0 <= x(5,31,0) <= 1
 0 <= x(6,31,0) <= 1
 0 <= x(7,31,0) <= 1
 0 <= x(8,31,0) <= 1
 0 <= x(9,31,0) <= 1
 0 <= x(10,0,0) <= 1
 0 <= x(10,1,0) <= 1
 0 <= x(10,2,0) <= 1
 0 <= x(10,3,0) <= 1
 0 <= x(10,4,0) <= 1
 0 <= x(10,5,0) <= 1
 0 <= x(10,6,0) <= 1
 0 <= x(10,7,0) <= 1
 0 <= x(10,8,0) <= 1
 0 <= x(10,9,0) <= 1
 0 <= x(10,15,0) <= 1
 0 <= x(10,16,0) <= 1
 0 <= x(10,17,0) <= 1
 0 <= x(10,18,0) <= 1
 0 <= x(10,19,0) <= 1
 0 <= x(10,20,0) <= 1
 0 <= x(10,21,0) <= 1
 0 <= x(10,22,0) <= 1
 0 <= x(10,23,0) <= 1
 0 <= x(10,24,0) <= 1
 0 <= x(10,31,0) <= 1
 0 <= x(11,0,0) <= 1
 0 <= x(11,2,0) <= 1
 0 <= x(11,3,0) <= 1
 0 <= x(11,4,0) <= 1
 0 <= x(11,5,0) <= 1
 0 <= x(11,7,0) <= 1
 0 <= x(11,8,0) <= 1
 0 <= x(11,9,0) <= 1
 0 <= x(11,15,0) <= 1
 0 <= x(11,17,0) <= 1
 0 <= x(11,18,0) <= 1
 0 <= x(11,19,0) <= 1
 0 <= x(11,20,0) <= 1
 0 <= x(11,22,0) <= 1
 0 <= x(11,23,0) <= 1
 0 <= x(11,24,0) <= 1
 0 <= x(11,31,0) <= 1
 0 <= x(12,0,0) <= 1
 0 <= x(12,1,0) <= 1
 0 <= x(12,3,0) <= 1
 0 <= x(12,4,0) <= 1
 0 <= x(12,5,0) <= 1
 0 <= x(12,6,0) <= 1
 0 <= x(12,8,0) <= 1
 0 <= x(12,9,0) <= 1
 0 <= x(12,15,0) <= 1
 0 <= x(12,16,0) <= 1
 0 <= x(12,18,0) <= 1
 0 <= x(12,19,0) <= 1
 0 <= x(12,20,0) <= 1
 0 <= x(12,21,0) <= 1
 0 <= x(12,23,0) <= 1
 0 <= x(12,24,0) <= 1
 0 <= x(12,31,0) <= 1
 0 <= x(13,0,0) <= 1
 0 <= x(13,2,0) <= 1
 0 <= x(13,5,0) <= 1
 0 <= x(13,6,0) <= 1
 0 <= x(13,7,0) <= 1
 0 <= x(13,9,0) <= 1
 0 <= x(13,15,0) <= 1
 0 <= x(13,16,0) <= 1
 0 <= x(13,17,0) <= 1
 0 <= x(13,19,0) <= 1
 0 <= x(13,20,0) <= 1
 0 <= x(13,21,0) <= 1
 0 <= x(13,22,0) <= 1
 0 <= x(13,24,0) <= 1
 0 <= x(13,31,0) <= 1
 0 <= x(14,0,0) <= 1
 0 <= x(14,1,0) <= 1
 0 <= x(14,2,0) <= 1
 0 <= x(14,3,0) <= 1
 0 <= x(14,5,0) <= 1
 0 <= x(14,6,0) <= 1
 0 <= x(14,7,0) <= 1
 0 <= x(14,8,0) <= 1
 0 <= x(14,15,0) <= 1
 0 <= x(14,16,0) <= 1
 0 <= x(14,17,0) <= 1
 0 <= x(14,18,0) <= 1
 0 <= x(14,20,0) <= 1
 0 <= x(14,21,0) <= 1
 0 <= x(14,22,0) <= 1
 0 <= x(14,23,0) <= 1
 0 <= x(14,31,0) <= 1
 0 <= x(15,5,0) <= 1
 0 <= x(15,6,0) <= 1
 0 <= x(15,7,0) <= 1
 0 <= x(15,8,0) <= 1
 0 <= x(15,9,0) <= 1
 0 <= x(15,31,0) <= 1
 0 <= x(16,5,0) <= 1
 0 <= x(16,7,0) <= 1
 0 <= x(16,8,0) <= 1
 0 <= x(16,9,0) <= 1
 0 <= x(16,31,0) <= 1
 0 <= x(17,5,0) <= 1
 0 <= x(17,6,0) <= 1
 0 <= x(17,8,0) <= 1
 0 <= x(17,9,0) <= 1
 0 <= x(17,31,0) <= 1
 0 <= x(18,5,0) <= 1
 0 <= x(18,6,0) <= 1
 0 <= x(18,7,0) <= 1
 0 <= x(18,9,0) <= 1
 0 <= x(18,31,0) <= 1
 0 <= x(19,5,0) <= 1
 0 <= x(19,6,0) <= 1
 0 <= x(19,7,0) <= 1
 0 <= x(19,8,0) <= 1
 0 <= x(19,31,0) <= 1
 0 <= x(20,5,0) <= 1
 0 <= x(20,6,0) <= 1
 0 <= x(20,7,0) <= 1
 0 <= x(20,8,0) <= 1
 0 <= x(20,9,0) <= 1
 0 <= x(20,15,0) <= 1
 0 <= x(20,19,0) <= 1
 0 <= x(20,31,0) <= 1
 0 <= x(21,5,0) <= 1
 0 <= x(21,7,0) <= 1
 0 <= x(21,8,0) <= 1
 0 <= x(21,9,0) <= 1
 0 <= x(21,15,0) <= 1
 0 <= x(21,31,0) <= 1
 0 <= x(22,5,0) <= 1
 0 <= x(22,6,0) <= 1
 0 <= x(22,8,0) <= 1
 0 <= x(22,9,0) <= 1
 0 <= x(22,31,0) <= 1
 0 <= x(23,5,0) <= 1
 0 <= x(23,6,0) <= 1
 0 <= x(23,7,0) <= 1
 0 <= x(23,9,0) <= 1
 0 <= x(23,31,0) <= 1
 0 <= x(24,5,0) <= 1
 0 <= x(24,6,0) <= 1
 0 <= x(24,7,0) <= 1
 0 <= x(24,8,0) <= 1
 0 <= x(24,15,0) <= 1
 0 <= x(24,31,0) <= 1
 0 <= x(25,0,0) <= 1
 0 <= x(25,1,0) <= 1
 0 <= x(25,2,0) <= 1
 0 <= x(25,3,0) <= 1
 0 <= x(25,4,0) <= 1
 0 <= x(25,5,0) <= 1
 0 <= x(25,6,0) <= 1
 0 <= x(25,7,0) <= 1
 0 <= x(25,8,0) <= 1
 0 <= x(25,9,0) <= 1
 0 <= x(25,10,0) <= 1
 0 <= x(25,11,0) <= 1
 0 <= x(25,12,0) <= 1
 0 <= x(25,13,0) <= 1
 0 <= x(25,14,0) <= 1
 0 <= x(25,15,0) <= 1
 0 <= x(25,16,0) <= 1
 0 <= x(25,17,0) <= 1
 0 <= x(25,18,0) <= 1
 0 <= x(25,19,0) <= 1
 0 <= x(25,20,0) <= 1
 0 <= x(25,21,0) <= 1
 0 <= x(25,22,0) <= 1
 0 <= x(25,23,0) <= 1
 0 <= x(25,24,0) <= 1
 0 <= x(25,31,0) <= 1
 0 <= x(26,0,0) <= 1
 0 <= x(26,2,0) <= 1
 0 <= x(26,3,0) <= 1
 0 <= x(26,4,0) <= 1
 0 <= x(26,5,0) <= 1
 0 <= x(26,7,0) <= 1
 0 <= x(26,8,0) <= 1
 0 <= x(26,9,0) <= 1
 0 <= x(26,10,0) <= 1
 0 <= x(26,12,0) <= 1
 0 <= x(26,13,0) <= 1
 0 <= x(26,14,0) <= 1
 0 <= x(26,15,0) <= 1
 0 <= x(26,17,0) <= 1
 0 <= x(26,18,0) <= 1
 0 <= x(26,19,0) <= 1
 0 <= x(26,20,0) <= 1
 0 <= x(26,22,0) <= 1
 0 <= x(26,23,0) <= 1
 0 <= x(26,24,0) <= 1
 0 <= x(26,31,0) <= 1
 0 <= x(27,0,0) <= 1
 0 <= x(27,1,0) <= 1
 0 <= x(27,3,0) <= 1
 0 <= x(27,4,0) <= 1
 0 <= x(27,5,0) <= 1
 0 <= x(27,6,0) <= 1
 0 <= x(27,8,0) <= 1
 0 <= x(27,9,0) <= 1
 0 <= x(27,10,0) <= 1
 0 <= x(27,11,0) <= 1
 0 <= x(27,13,0) <= 1
 0 <= x(27,14,0) <= 1
 0 <= x(27,15,0) <= 1
 0 <= x(27,16,0) <= 1
 0 <= x(27,18,0) <= 1
 0 <= x(27,19,0) <= 1
 0 <= x(27,20,0) <= 1
 0 <= x(27,21,0) <= 1
 0 <= x(27,23,0) <= 1
 0 <= x(27,24,0) <= 1
 0 <= x(27,31,0) <= 1
 0 <= x(28,0,0) <= 1
 0 <= x(28,1,0) <= 1
 0 <= x(28,2,0) <= 1
 0 <= x(28,4,0) <= 1
 0 <= x(28,5,0) <= 1
 0 <= x(28,6,0) <= 1
 0 <= x(28,7,0) <= 1
 0 <= x(28,9,0) <= 1
 0 <= x(28,10,0) <= 1
 0 <= x(28,11,0) <= 1
 0 <= x(28,12,0) <= 1
 0 <= x(28,14,0) <= 1
 0 <= x(28,15,0) <= 1
 0 <= x(28,16,0) <= 1
 0 <= x(28,17,0) <= 1
 0 <= x(28,19,0) <= 1
 0 <= x(28,20,0) <= 1
 0 <= x(28,21,0) <= 1
 0 <= x(28,22,0) <= 1
 0 <= x(28,24,0) <= 1
 0 <= x(28,31,0) <= 1
 0 <= x(29,0,0) <= 1
 0 <= x(29,1,0) <= 1
 0 <= x(29,2,0) <= 1
 0 <= x(29,3,0) <= 1
 0 <= x(29,5,0) <= 1
 0 <= x(29,6,0) <= 1
 0 <= x(29,7,0) <= 1
 0 <= x(29,8,0) <= 1
 0 <= x(29,10,0) <= 1
 0 <= x(29,11,0) <= 1
 0 <= x(29,12,0) <= 1
 0 <= x(29,13,0) <= 1
 0 <= x(29,15,0) <= 1
 0 <= x(29,16,0) <= 1
 0 <= x(29,17,0) <= 1
 0 <= x(29,18,0) <= 1
 0 <= x(29,20,0) <= 1
 0 <= x(29,21,0) <= 1
 0 <= x(29,22,0) <= 1
 0 <= x(29,23,0) <= 1
 0 <= x(29,31,0) <= 1
 0 <= x(30,0,0) <= 1
 0 <= x(30,1,0) <= 1
 0 <= x(30,2,0) <= 1
 0 <= x(30,3,0) <= 1
 0 <= x(30,4,0) <= 1
 0 <= x(30,5,0) <= 1
 0 <= x(30,6,0) <= 1
 0 <= x(30,7,0) <= 1
 0 <= x(30,8,0) <= 1
 0 <= x(30,9,0) <= 1
 0 <= x(30,10,0) <= 1
 0 <= x(30,11,0) <= 1
 0 <= x(30,12,0) <= 1
 0 <= x(30,13,0) <= 1
 0 <= x(30,14,0) <= 1
 0 <= x(30,15,0) <= 1
 0 <= x(30,16,0) <= 1
 0 <= x(30,17,0) <= 1
 0 <= x(30,18,0) <= 1
 0 <= x(30,19,0) <= 1
 0 <= x(30,20,0) <= 1
 0 <= x(30,21,0) <= 1
 0 <= x(30,22,0) <= 1
 0 <= x(30,23,0) <= 1
 0 <= x(30,24,0) <= 1
 0 <= x(30,25,0) <= 1
 0 <= x(30,26,0) <= 1
 0 <= x(30,27,0) <= 1
 0 <= x(30,28,0) <= 1
 0 <= x(30,29,0) <= 1
Binaries
 x(0,5,0)  x(0,6,0)  x(0,7,0)  x(0,8,0)  x(0,9,0)  x(0,15,0)  x(0,16,0) 
 x(0,17,0)  x(0,18,0)  x(0,19,0)  x(0,20,0)  x(0,21,0)  x(0,22,0)  x(0,23,0) 
 x(0,24,0)  x(0,31,0)  x(1,5,0)  x(1,7,0)  x(1,8,0)  x(1,9,0)  x(1,15,0) 
 x(1,17,0)  x(1,18,0)  x(1,19,0)  x(1,20,0)  x(1,22,0)  x(1,23,0)  x(1,24,0) 
 x(1,31,0)  x(2,5,0)  x(2,6,0)  x(2,8,0)  x(2,9,0)  x(2,15,0)  x(2,16,0) 
 x(2,18,0)  x(2,19,0)  x(2,20,0)  x(2,21,0)  x(2,23,0)  x(2,24,0)  x(2,31,0) 
 x(3,5,0)  x(3,6,0)  x(3,7,0)  x(3,9,0)  x(3,15,0)  x(3,16,0)  x(3,17,0) 
 x(3,19,0)  x(3,20,0)  x(3,21,0)  x(3,22,0)  x(3,24,0)  x(3,31,0)  x(4,5,0) 
 x(4,6,0)  x(4,7,0)  x(4,8,0)  x(4,15,0)  x(4,16,0)  x(4,17,0)  x(4,18,0) 
 x(4,20,0)  x(4,21,0)  x(4,22,0)  x(4,23,0)  x(4,31,0)  x(5,31,0)  x(6,31,0) 
 x(7,31,0)  x(8,31,0)  x(9,31,0)  x(10,0,0)  x(10,1,0)  x(10,2,0)  x(10,3,0) 
 x(10,4,0)  x(10,5,0)  x(10,6,0)  x(10,7,0)  x(10,8,0)  x(10,9,0)  x(10,15,0) 
 x(10,16,0)  x(10,17,0)  x(10,18,0)  x(10,19,0)  x(10,20,0)  x(10,21,0) 
 x(10,22,0)  x(10,23,0)  x(10,24,0)  x(10,31,0)  x(11,0,0)  x(11,2,0) 
 x(11,3,0)  x(11,4,0)  x(11,5,0)  x(11,7,0)  x(11,8,0)  x(11,9,0)  x(11,15,0) 
 x(11,17,0)  x(11,18,0)  x(11,19,0)  x(11,20,0)  x(11,22,0)  x(11,23,0) 
 x(11,24,0)  x(11,31,0)  x(12,0,0)  x(12,1,0)  x(12,3,0)  x(12,4,0)  x(12,5,0) 
 x(12,6,0)  x(12,8,0)  x(12,9,0)  x(12,15,0)  x(12,16,0)  x(12,18,0) 
 x(12,19,0)  x(12,20,0)  x(12,21,0)  x(12,23,0)  x(12,24,0)  x(12,31,0) 
 x(13,0,0)  x(13,2,0)  x(13,5,0)  x(13,6,0)  x(13,7,0)  x(13,9,0)  x(13,15,0) 
 x(13,16,0)  x(13,17,0)  x(13,19,0)  x(13,20,0)  x(13,21,0)  x(13,22,0) 
 x(13,24,0)  x(13,31,0)  x(14,0,0)  x(14,1,0)  x(14,2,0)  x(14,3,0)  x(14,5,0) 
 x(14,6,0)  x(14,7,0)  x(14,8,0)  x(14,15,0)  x(14,16,0)  x(14,17,0) 
 x(14,18,0)  x(14,20,0)  x(14,21,0)  x(14,22,0)  x(14,23,0)  x(14,31,0) 
 x(15,5,0)  x(15,6,0)  x(15,7,0)  x(15,8,0)  x(15,9,0)  x(15,31,0)  x(16,5,0) 
 x(16,7,0)  x(16,8,0)  x(16,9,0)  x(16,31,0)  x(17,5,0)  x(17,6,0)  x(17,8,0) 
 x(17,9,0)  x(17,31,0)  x(18,5,0)  x(18,6,0)  x(18,7,0)  x(18,9,0)  x(18,31,0) 
 x(19,5,0)  x(19,6,0)  x(19,7,0)  x(19,8,0)  x(19,31,0)  x(20,5,0)  x(20,6,0) 
 x(20,7,0)  x(20,8,0)  x(20,9,0)  x(20,15,0)  x(20,19,0)  x(20,31,0) 
 x(21,5,0)  x(21,7,0)  x(21,8,0)  x(21,9,0)  x(21,15,0)  x(21,31,0)  x(22,5,0) 
 x(22,6,0)  x(22,8,0)  x(22,9,0)  x(22,31,0)  x(23,5,0)  x(23,6,0)  x(23,7,0) 
 x(23,9,0)  x(23,31,0)  x(24,5,0)  x(24,6,0)  x(24,7,0)  x(24,8,0)  x(24,15,0) 
 x(24,31,0)  x(25,0,0)  x(25,1,0)  x(25,2,0)  x(25,3,0)  x(25,4,0)  x(25,5,0) 
 x(25,6,0)  x(25,7,0)  x(25,8,0)  x(25,9,0)  x(25,10,0)  x(25,11,0) 
 x(25,12,0)  x(25,13,0)  x(25,14,0)  x(25,15,0)  x(25,16,0)  x(25,17,0) 
 x(25,18,0)  x(25,19,0)  x(25,20,0)  x(25,21,0)  x(25,22,0)  x(25,23,0) 
 x(25,24,0)  x(25,31,0)  x(26,0,0)  x(26,2,0)  x(26,3,0)  x(26,4,0)  x(26,5,0) 
 x(26,7,0)  x(26,8,0)  x(26,9,0)  x(26,10,0)  x(26,12,0)  x(26,13,0) 
 x(26,14,0)  x(26,15,0)  x(26,17,0)  x(26,18,0)  x(26,19,0)  x(26,20,0) 
 x(26,22,0)  x(26,23,0)  x(26,24,0)  x(26,31,0)  x(27,0,0)  x(27,1,0) 
 x(27,3,0)  x(27,4,0)  x(27,5,0)  x(27,6,0)  x(27,8,0)  x(27,9,0)  x(27,10,0) 
 x(27,11,0)  x(27,13,0)  x(27,14,0)  x(27,15,0)  x(27,16,0)  x(27,18,0) 
 x(27,19,0)  x(27,20,0)  x(27,21,0)  x(27,23,0)  x(27,24,0)  x(27,31,0) 
 x(28,0,0)  x(28,1,0)  x(28,2,0)  x(28,4,0)  x(28,5,0)  x(28,6,0)  x(28,7,0) 
 x(28,9,0)  x(28,10,0)  x(28,11,0)  x(28,12,0)  x(28,14,0)  x(28,15,0) 
 x(28,16,0)  x(28,17,0)  x(28,19,0)  x(28,20,0)  x(28,21,0)  x(28,22,0) 
 x(28,24,0)  x(28,31,0)  x(29,0,0)  x(29,1,0)  x(29,2,0)  x(29,3,0)  x(29,5,0) 
 x(29,6,0)  x(29,7,0)  x(29,8,0)  x(29,10,0)  x(29,11,0)  x(29,12,0) 
 x(29,13,0)  x(29,15,0)  x(29,16,0)  x(29,17,0)  x(29,18,0)  x(29,20,0) 
 x(29,21,0)  x(29,22,0)  x(29,23,0)  x(29,31,0)  x(30,0,0)  x(30,1,0) 
 x(30,2,0)  x(30,3,0)  x(30,4,0)  x(30,5,0)  x(30,6,0)  x(30,7,0)  x(30,8,0) 
 x(30,9,0)  x(30,10,0)  x(30,11,0)  x(30,12,0)  x(30,13,0)  x(30,14,0) 
 x(30,15,0)  x(30,16,0)  x(30,17,0)  x(30,18,0)  x(30,19,0)  x(30,20,0) 
 x(30,21,0)  x(30,22,0)  x(30,23,0)  x(30,24,0)  x(30,25,0)  x(30,26,0) 
 x(30,27,0)  x(30,28,0)  x(30,29,0) 
End
